c Random Network
p min 10 20
n 1 1
n 10 -1
c Transformed from a max-flow problem.
a 	 9	10	0	39	0
a 	 8	10	0	18	0
a 	 1	4	0	30	0
a 	 1	2	0	7	0
a 	 6	8	0	19	0
a 	 2	7	0	31	0
a 	 3	1	0	4	0
a 	 4	2	0	35	0
a 	 8	6	0	17	0
a 	 2	3	0	4	0
a 	 7	9	0	45	0
a 	 3	5	0	29	0
a 	 2	5	0	32	0
a 	 2	8	0	44	0
a 	 9	7	0	42	0
a 	 2	1	0	9	0
a 	 1	9	0	7	0
a 	 10	8	0	41	0
a 	 8	2	0	6	0
a 	 10	6	0	21	0